NAME: ulysses22.tsp
TYPE: TSP
COMMENT: Odyssey of Ulysses (Groetschel/Padberg) 75.66514947135613
DIMENSION: 22
EDGE_WEIGHT_TYPE: GEO
DISPLAY_DATA_TYPE: COORD_DISPLAY
NODE_COORD_SECTION
 1 3824 2042
 2 3957 2615
 3 4056 2532
 4 3626 2312
 5 3348 1054
 6 3756 1219
 7 3842 1311
 8 3752 2044
 9 4123 910
 10 4117 1305
 11 3608 -521
 12 3847 1513
 13 3815 1535
 14 3751 1517
 15 3549 1432
 16 3936 1956
 17 3809 2436
 18 3609 2300
 19 4044 1357
 20 4033 1415
 21 4037 1423
 22 3757 2256
EOF

